set VV := 0 1 2 3 4 5 6 7 8 9 10 11 12 13 14 15 16 17 18 19 20 21 22 23 24 25 26 27 28 29 30 31 32 33 34 ;
set VS := 0 1 2 3 4 5 6 7 8 9 10 11 12 13 14 15 16 17 18 19 20 21 22 23 24 25 26 27 28 29 30 31 32 33 34 35 36 37 38 39 40 41 42 43 44 45 46 47 48 49 50 51 52 53 54 55 56 57 58 59 60 61 62 63 64 65 66 67 68 69 70 71 72 73 74 ;
param cv := 
0 20
1 11
2 16
3 18
4 16
5 17
6 25
7 20
8 14
9 24
10 22
11 25
12 16
13 23
14 16
15 17
16 20
17 24
18 10
19 20
20 25
21 10
22 20
23 11
24 11
25 10
26 16
27 24
28 24
29 16
30 19
31 14
32 20
33 15
34 10
;
param cs := 
0 34
1 28
2 36
3 26
4 36
5 23
6 25
7 27
8 38
9 39
10 33
11 23
12 40
13 36
14 31
15 24
16 22
17 20
18 33
19 34
20 40
21 36
22 40
23 21
24 29
25 32
26 32
27 26
28 34
29 30
30 24
31 32
32 39
33 32
34 30
35 29
36 34
37 40
38 32
39 35
40 22
41 39
42 32
43 27
44 25
45 36
46 25
47 40
48 40
49 22
50 37
51 33
52 37
53 40
54 34
55 22
56 35
57 29
58 20
59 26
60 28
61 30
62 28
63 22
64 31
65 26
66 32
67 28
68 31
69 37
70 24
71 21
72 20
73 33
74 36
;
param bv:	 0 1 2 3 4 5 6 7 8 9 10 11 12 13 14 15 16 17 18 19 20 21 22 23 24 25 26 27 28 29 30 31 32 33 34 := 
		0 0 0 0 0 0 0 0 0 0 15 0 0 0 0 0 0 0 0 0 13 10 0 0 0 0 0 16 0 0 0 0 22 0 0 0 
		1 0 0 0 0 0 0 0 0 13 22 0 0 0 0 0 0 0 0 0 0 16 16 0 0 0 0 0 0 0 0 0 0 0 16 0 
		2 0 0 0 0 0 0 25 0 0 0 0 0 19 10 0 0 0 0 0 0 0 0 0 20 0 0 0 0 0 0 0 0 0 0 0 
		3 0 0 0 0 0 0 0 0 0 0 24 0 0 0 0 0 0 22 23 0 0 0 0 0 0 0 0 0 0 0 23 0 0 0 0 
		4 0 0 0 0 0 0 0 0 0 0 0 0 0 0 0 0 0 0 0 14 0 0 24 0 0 0 0 0 0 0 0 0 0 0 0 
		5 0 0 0 0 0 0 0 0 0 0 0 0 13 0 0 0 0 0 0 0 15 0 0 0 0 21 0 0 0 0 0 0 0 0 0 
		6 0 0 0 0 0 0 0 25 0 0 0 0 15 0 0 0 0 0 0 0 0 0 0 24 0 0 0 0 0 0 0 0 0 0 0 
		7 0 0 0 0 0 0 0 0 0 0 19 0 0 0 0 0 18 0 0 0 0 0 0 0 0 0 0 0 0 0 0 23 0 18 0 
		8 0 0 0 0 0 0 0 0 0 0 0 0 0 0 0 0 0 0 16 17 25 0 0 0 18 0 0 25 0 0 0 0 0 0 0 
		9 0 0 0 0 0 0 0 0 0 0 0 0 0 0 25 0 0 0 0 0 13 0 0 0 0 0 0 0 0 0 0 14 10 0 0 
		10 0 0 0 0 0 0 0 0 0 0 0 0 0 0 0 0 0 0 0 0 0 16 0 0 0 0 0 25 0 0 0 0 0 0 0 
		11 0 0 0 0 0 0 0 0 0 0 0 0 0 0 0 0 0 14 0 0 0 0 0 0 0 0 0 0 0 0 0 0 0 0 0 
		12 0 0 0 0 0 0 0 0 0 0 0 0 0 0 0 0 0 0 0 0 0 0 0 0 0 0 0 0 0 0 0 21 0 0 0 
		13 0 0 0 0 0 0 0 0 0 0 0 0 0 0 0 0 0 0 0 0 22 12 0 0 0 0 0 0 0 0 0 0 0 0 0 
		14 0 0 0 0 0 0 0 0 0 0 0 0 0 0 0 0 0 0 0 0 0 0 0 0 0 0 0 0 0 0 0 0 0 0 0 
		15 0 0 0 0 0 0 0 0 0 0 0 0 0 0 0 0 0 0 0 0 0 0 0 0 0 0 0 0 21 0 0 0 0 0 0 
		16 0 0 0 0 0 0 0 0 0 0 0 0 0 0 0 0 0 0 0 0 0 0 0 0 0 0 0 0 0 0 0 0 0 0 0 
		17 0 0 0 0 0 0 0 0 0 0 0 0 0 0 0 0 0 0 0 0 0 0 0 0 0 0 0 0 0 21 0 0 0 0 0 
		18 0 0 0 0 0 0 0 0 0 0 0 0 0 0 0 0 0 0 0 16 0 0 0 0 0 0 0 0 0 0 0 0 0 0 0 
		19 0 0 0 0 0 0 0 0 0 0 0 0 0 0 0 0 0 0 0 0 0 12 0 0 0 0 0 0 11 0 0 16 0 15 0 
		20 0 0 0 0 0 0 0 0 0 0 0 0 0 0 0 0 0 0 0 0 0 0 0 0 0 0 0 20 0 21 0 15 0 14 0 
		21 0 0 0 0 0 0 0 0 0 0 0 0 0 0 0 0 0 0 0 0 0 0 0 0 0 0 0 0 0 0 18 0 0 0 0 
		22 0 0 0 0 0 0 0 0 0 0 0 0 0 0 0 0 0 0 0 0 0 0 0 0 0 0 0 0 0 0 0 0 0 0 0 
		23 0 0 0 0 0 0 0 0 0 0 0 0 0 0 0 0 0 0 0 0 0 0 0 0 0 0 0 0 0 0 0 0 0 0 0 
		24 0 0 0 0 0 0 0 0 0 0 0 0 0 0 0 0 0 0 0 0 0 0 0 0 0 0 0 0 0 0 25 0 0 0 0 
		25 0 0 0 0 0 0 0 0 0 0 0 0 0 0 0 0 0 0 0 0 0 0 0 0 0 0 0 0 0 0 0 0 0 0 0 
		26 0 0 0 0 0 0 0 0 0 0 0 0 0 0 0 0 0 0 0 0 0 0 0 0 0 0 0 0 0 19 0 0 0 0 0 
		27 0 0 0 0 0 0 0 0 0 0 0 0 0 0 0 0 0 0 0 0 0 0 0 0 0 0 0 0 0 0 0 0 0 0 0 
		28 0 0 0 0 0 0 0 0 0 0 0 0 0 0 0 0 0 0 0 0 0 0 0 0 0 0 0 0 0 0 0 23 0 0 0 
		29 0 0 0 0 0 0 0 0 0 0 0 0 0 0 0 0 0 0 0 0 0 0 0 0 0 0 0 0 0 0 0 0 23 0 17 
		30 0 0 0 0 0 0 0 0 0 0 0 0 0 0 0 0 0 0 0 0 0 0 0 0 0 0 0 0 0 0 0 0 0 0 0 
		31 0 0 0 0 0 0 0 0 0 0 0 0 0 0 0 0 0 0 0 0 0 0 0 0 0 0 0 0 0 0 0 0 0 0 23 
		32 0 0 0 0 0 0 0 0 0 0 0 0 0 0 0 0 0 0 0 0 0 0 0 0 0 0 0 0 0 0 0 0 0 0 0 
		33 0 0 0 0 0 0 0 0 0 0 0 0 0 0 0 0 0 0 0 0 0 0 0 0 0 0 0 0 0 0 0 0 0 0 0 
		34 0 0 0 0 0 0 0 0 0 0 0 0 0 0 0 0 0 0 0 0 0 0 0 0 0 0 0 0 0 0 0 0 0 0 0 
;
param bs:	 0 1 2 3 4 5 6 7 8 9 10 11 12 13 14 15 16 17 18 19 20 21 22 23 24 25 26 27 28 29 30 31 32 33 34 35 36 37 38 39 40 41 42 43 44 45 46 47 48 49 50 51 52 53 54 55 56 57 58 59 60 61 62 63 64 65 66 67 68 69 70 71 72 73 74 := 
		0 0 0 25 0 0 0 0 0 0 0 0 0 0 0 0 0 0 0 0 0 0 0 0 0 0 0 0 0 0 0 0 0 0 0 0 0 0 0 0 0 0 0 0 0 0 0 0 0 0 0 21 30 0 0 35 0 0 0 0 0 0 0 0 0 0 0 0 0 0 0 0 0 0 0 0 
		1 0 0 0 0 0 0 0 0 0 0 0 21 0 0 32 0 0 0 31 31 0 0 0 0 0 0 0 0 0 0 0 0 0 0 0 0 0 0 0 0 36 0 0 0 0 0 0 0 0 36 0 0 0 0 0 0 21 0 0 0 0 0 0 0 0 0 0 0 29 0 0 28 0 0 0 
		2 25 0 0 0 0 0 0 0 0 0 0 0 0 0 0 0 0 31 0 0 0 0 0 0 0 0 0 32 0 0 0 0 0 0 0 20 0 36 0 0 0 0 0 0 0 0 0 25 32 0 0 0 0 0 0 0 0 0 0 0 25 0 0 33 0 0 0 0 0 0 0 0 0 0 0 
		3 0 0 0 0 0 0 0 0 0 36 0 0 0 0 0 0 0 0 0 0 0 0 0 0 0 0 0 0 0 0 0 0 0 0 0 0 0 0 0 0 0 0 0 0 0 0 0 0 0 0 0 21 0 0 0 0 0 0 0 0 0 0 0 0 33 22 0 0 0 0 0 0 0 0 0 
		4 0 0 0 0 0 0 0 0 31 0 0 0 0 29 0 29 0 0 30 0 24 0 0 0 0 0 0 0 0 0 0 0 0 0 0 0 0 0 0 0 0 0 0 0 29 0 0 0 23 0 0 36 0 0 0 23 0 0 0 0 0 0 0 0 0 25 0 0 0 22 0 0 0 27 36 
		5 0 0 0 0 0 0 0 0 37 0 0 0 0 0 38 0 0 0 0 0 0 0 0 0 0 0 0 21 0 0 0 0 0 0 0 0 0 0 0 0 0 0 0 0 0 0 0 0 0 0 0 0 0 0 0 0 0 0 0 0 28 0 0 0 0 0 0 0 0 0 0 0 0 0 0 
		6 0 0 0 0 0 0 0 0 31 22 0 0 0 0 0 0 0 0 32 0 0 0 0 0 0 0 24 0 0 0 0 0 0 0 0 0 0 0 0 0 0 0 0 0 0 39 0 0 0 0 0 0 0 0 0 38 0 0 0 29 0 0 0 34 0 31 0 0 0 0 0 0 0 0 0 
		7 0 0 0 0 0 0 0 0 22 0 0 0 0 0 0 0 0 0 0 31 0 0 0 0 0 0 0 0 0 0 0 0 0 0 0 0 0 22 0 0 30 0 0 0 0 0 23 0 33 0 0 0 0 0 0 0 0 0 0 0 0 0 0 0 0 0 0 0 0 0 0 0 0 0 0 
		8 0 0 0 0 31 37 31 22 0 0 0 37 26 0 0 0 0 0 0 0 0 0 32 36 0 0 0 0 0 0 23 0 0 0 0 0 0 0 0 0 0 0 0 0 0 0 0 0 0 0 0 0 0 0 0 23 0 0 0 0 22 39 0 0 0 0 0 0 0 0 0 0 0 0 0 
		9 0 0 0 36 0 0 22 0 0 0 0 24 0 0 0 0 0 0 0 34 0 0 0 0 0 0 0 0 0 39 0 0 0 22 0 0 0 0 0 0 0 0 0 0 0 0 0 20 0 32 0 0 0 0 23 0 0 0 0 0 0 0 0 0 0 38 0 0 0 0 0 0 0 0 0 
		10 0 0 0 0 0 0 0 0 0 0 0 0 0 21 0 0 0 0 0 0 0 0 0 0 0 0 0 0 0 0 0 0 28 0 0 0 0 0 0 0 0 0 0 0 0 0 0 0 0 0 27 0 0 0 0 0 0 0 0 0 0 0 0 35 0 0 0 0 0 0 0 0 0 0 0 
		11 0 21 0 0 0 0 0 0 37 24 0 0 0 0 25 22 0 0 0 0 0 0 0 0 0 0 0 0 0 0 32 0 0 0 0 40 0 0 0 0 0 0 0 0 0 40 0 0 0 0 0 0 0 23 39 0 0 0 0 0 0 0 0 0 0 0 0 0 0 0 0 27 0 0 0 
		12 0 0 0 0 0 0 0 0 26 0 0 0 0 0 0 0 0 0 0 0 0 0 0 0 0 0 0 0 0 0 0 0 0 0 0 0 0 0 0 0 0 0 0 0 0 0 0 0 0 0 0 0 0 31 0 36 0 0 0 0 0 0 0 0 0 0 0 0 0 0 40 0 38 0 0 
		13 0 0 0 0 29 0 0 0 0 0 21 0 0 0 0 0 0 0 0 0 26 0 0 30 0 26 0 0 0 0 0 0 0 0 0 0 0 0 0 0 0 0 0 0 0 0 0 0 0 0 0 0 0 0 0 0 0 0 0 0 0 0 0 0 0 21 0 0 39 0 0 0 0 0 0 
		14 0 32 0 0 0 38 0 0 0 0 0 25 0 0 0 0 30 0 0 0 0 0 0 29 0 0 0 0 0 0 0 0 0 0 0 21 30 0 0 21 0 32 0 0 0 0 0 0 22 0 0 0 0 0 0 0 0 0 0 0 38 0 0 0 0 29 0 0 0 0 0 0 0 0 0 
		15 0 0 0 0 29 0 0 0 0 0 0 22 0 0 0 0 0 0 0 0 0 0 0 0 0 0 0 0 0 0 0 0 0 0 0 0 0 0 0 0 0 25 0 0 0 0 0 0 0 0 0 0 0 28 0 0 0 0 0 0 0 0 0 0 0 0 0 0 0 0 0 0 0 0 0 
		16 0 0 0 0 0 0 0 0 0 0 0 0 0 0 30 0 0 0 0 0 0 0 0 35 0 0 0 0 0 0 0 0 0 0 0 0 0 0 0 0 0 0 0 0 33 0 0 20 0 0 0 0 0 0 0 36 0 0 0 0 0 37 0 0 0 40 0 0 30 36 0 0 0 0 0 
		17 0 0 31 0 0 0 0 0 0 0 0 0 0 0 0 0 0 0 28 0 0 0 0 0 0 0 25 27 0 0 0 0 24 0 0 0 0 0 0 0 0 0 0 0 0 0 34 0 32 0 0 0 0 0 0 0 21 0 0 0 0 0 0 39 0 0 25 0 0 0 0 0 0 0 0 
		18 0 31 0 0 30 0 32 0 0 0 0 0 0 0 0 0 0 28 0 0 0 0 0 0 0 0 0 20 0 0 0 0 0 40 0 0 0 28 0 0 24 0 0 26 0 0 0 0 0 0 0 0 0 0 0 0 0 0 29 0 0 22 0 0 0 31 35 0 31 0 0 0 0 0 0 
		19 0 31 0 0 0 0 0 31 0 34 0 0 0 0 0 0 0 0 0 0 0 0 0 0 0 0 40 0 0 0 0 33 0 0 31 0 0 0 22 0 0 35 40 0 0 0 0 0 0 0 0 0 0 0 0 35 21 0 0 0 23 0 0 0 0 0 0 0 0 0 0 0 0 0 0 
		20 0 0 0 0 24 0 0 0 0 0 0 0 0 26 0 0 0 0 0 0 0 0 0 0 38 0 0 0 20 0 0 0 35 0 0 0 0 0 0 32 0 0 0 0 0 0 0 0 0 0 0 0 0 0 0 0 0 0 0 0 0 0 0 20 20 21 38 0 0 0 0 0 0 0 0 
		21 0 0 0 0 0 0 0 0 0 0 0 0 0 0 0 0 0 0 0 0 0 0 0 0 34 0 25 0 40 0 0 0 0 29 23 0 0 0 0 21 0 23 0 0 0 0 0 0 0 33 38 0 0 0 0 0 0 0 0 0 0 0 0 0 0 0 0 0 0 0 0 0 0 0 0 
		22 0 0 0 0 0 0 0 0 32 0 0 0 0 0 0 0 0 0 0 0 0 0 0 0 0 38 0 0 27 0 0 0 39 0 0 0 0 37 0 0 0 0 0 0 27 0 0 0 0 0 0 0 0 0 0 0 0 0 0 0 0 0 0 25 0 34 0 0 0 32 0 0 0 0 0 
		23 0 0 0 0 0 0 0 0 36 0 0 0 0 30 29 0 35 0 0 0 0 0 0 0 0 0 0 0 0 0 0 0 0 0 0 33 36 0 0 0 0 37 0 0 0 0 0 0 26 0 0 0 0 0 0 0 0 0 0 0 0 0 31 0 0 25 0 0 0 0 0 0 0 0 0 
		24 0 0 0 0 0 0 0 0 0 0 0 0 0 0 0 0 0 0 0 0 38 34 0 0 0 0 20 0 0 0 0 0 0 0 36 0 0 0 0 0 0 0 21 0 0 0 0 0 0 0 0 0 0 0 0 0 0 29 0 0 0 0 0 0 0 0 28 0 0 0 0 0 0 0 0 
		25 0 0 0 0 0 0 0 0 0 0 0 0 0 26 0 0 0 0 0 0 0 0 38 0 0 0 0 0 0 0 0 0 0 0 0 0 0 0 0 0 0 0 0 0 20 0 0 0 40 0 0 0 0 0 0 0 0 0 0 0 0 0 0 0 0 0 0 0 0 0 0 0 0 0 0 
		26 0 0 0 0 0 0 24 0 0 0 0 0 0 0 0 0 0 25 0 40 0 25 0 0 20 0 0 31 0 28 37 0 0 22 0 0 0 0 31 0 0 0 23 0 0 0 0 0 0 0 0 0 0 38 0 0 0 0 31 0 0 0 0 0 0 26 0 0 0 0 33 0 0 0 0 
		27 0 0 32 0 0 21 0 0 0 0 0 0 0 0 0 0 0 27 20 0 0 0 0 0 0 0 31 0 0 0 0 0 0 0 0 0 0 0 0 0 0 0 0 0 0 0 0 0 0 0 0 0 0 0 0 0 0 0 20 0 0 0 0 0 0 0 0 0 0 0 0 0 0 0 0 
		28 0 0 0 0 0 0 0 0 0 0 0 0 0 0 0 0 0 0 0 0 20 40 27 0 0 0 0 0 0 0 0 0 0 0 0 0 0 0 0 40 0 0 0 0 0 0 0 40 0 0 0 0 0 0 0 31 0 0 0 27 0 0 0 0 0 0 0 0 0 0 0 0 0 0 0 
		29 0 0 0 0 0 0 0 0 0 39 0 0 0 0 0 0 0 0 0 0 0 0 0 0 0 0 28 0 0 0 0 0 0 0 0 0 0 0 0 0 0 0 0 0 0 0 0 23 0 0 0 0 0 0 0 0 0 0 0 0 0 22 0 0 0 0 0 0 0 0 0 40 0 0 0 
		30 0 0 0 0 0 0 0 0 23 0 0 32 0 0 0 0 0 0 0 0 0 0 0 0 0 0 37 0 0 0 0 0 0 0 0 0 0 0 0 0 35 0 0 0 0 0 0 0 0 0 0 0 0 0 32 0 38 0 0 0 0 0 0 0 0 0 0 0 0 0 0 0 0 0 39 
		31 0 0 0 0 0 0 0 0 0 0 0 0 0 0 0 0 0 0 0 33 0 0 0 0 0 0 0 0 0 0 0 0 0 0 36 0 0 0 0 0 36 0 35 0 0 0 34 0 0 0 0 0 0 0 0 0 0 0 0 0 37 0 0 0 0 38 0 0 0 0 0 25 0 0 0 
		32 0 0 0 0 0 0 0 0 0 0 28 0 0 0 0 0 0 24 0 0 35 0 39 0 0 0 0 0 0 0 0 0 0 0 0 0 0 0 0 0 0 0 0 0 0 0 0 0 0 37 35 31 0 39 0 0 0 0 0 0 0 0 0 0 20 23 23 0 28 0 0 0 0 0 0 
		33 0 0 0 0 0 0 0 0 0 22 0 0 0 0 0 0 0 0 40 0 0 29 0 0 0 0 22 0 0 0 0 0 0 0 0 0 0 0 0 0 0 0 0 27 0 0 0 0 0 28 0 0 0 0 0 0 0 0 0 0 0 0 0 0 0 0 0 0 40 0 0 0 0 0 0 
		34 0 0 0 0 0 0 0 0 0 0 0 0 0 0 0 0 0 0 0 31 0 23 0 0 36 0 0 0 0 0 0 36 0 0 0 0 0 0 0 0 0 0 0 0 0 0 0 0 0 0 0 0 0 0 0 0 0 31 0 0 0 0 0 0 0 0 0 0 0 0 38 26 0 0 32 
		35 0 0 20 0 0 0 0 0 0 0 0 40 0 0 21 0 0 0 0 0 0 0 0 33 0 0 0 0 0 0 0 0 0 0 0 0 0 0 0 0 23 0 0 0 26 0 0 0 39 0 0 0 0 0 0 0 0 0 0 0 0 20 0 0 0 23 37 0 0 0 0 0 0 0 0 
		36 0 0 0 0 0 0 0 0 0 0 0 0 0 0 30 0 0 0 0 0 0 0 0 36 0 0 0 0 0 0 0 0 0 0 0 0 0 0 28 0 0 0 0 0 0 0 0 0 40 0 0 0 0 0 0 0 0 0 31 0 0 0 39 0 0 22 0 0 0 26 40 0 29 0 0 
		37 0 0 36 0 0 0 0 22 0 0 0 0 0 0 0 0 0 0 28 0 0 0 37 0 0 0 0 0 0 0 0 0 0 0 0 0 0 0 0 0 0 0 0 0 0 0 0 0 0 0 0 0 29 0 0 0 0 0 0 0 0 0 0 0 0 0 0 0 0 0 0 0 0 0 0 
		38 0 0 0 0 0 0 0 0 0 0 0 0 0 0 0 0 0 0 0 22 0 0 0 0 0 0 31 0 0 0 0 0 0 0 0 0 28 0 0 0 26 0 0 0 0 0 0 25 0 0 0 0 0 0 0 0 0 0 0 0 0 0 0 26 25 0 0 0 0 0 0 0 0 0 0 
		39 0 0 0 0 0 0 0 0 0 0 0 0 0 0 21 0 0 0 0 0 32 21 0 0 0 0 0 0 40 0 0 0 0 0 0 0 0 0 0 0 0 0 0 0 0 0 39 0 0 0 0 0 0 0 0 0 0 0 0 0 0 0 0 0 0 0 0 0 0 0 0 0 0 0 0 
		40 0 36 0 0 0 0 0 30 0 0 0 0 0 0 0 0 0 0 24 0 0 0 0 0 0 0 0 0 0 0 35 36 0 0 0 23 0 0 26 0 0 0 0 0 0 30 0 0 0 0 0 0 0 0 27 0 0 0 0 37 0 34 0 0 0 0 0 0 0 0 36 0 25 0 0 
		41 0 0 0 0 0 0 0 0 0 0 0 0 0 0 32 25 0 0 0 35 0 23 0 37 0 0 0 0 0 0 0 0 0 0 0 0 0 0 0 0 0 0 33 0 0 26 0 0 0 0 0 0 0 26 0 0 0 0 0 0 35 0 0 0 0 0 0 0 0 27 0 0 0 0 0 
		42 0 0 0 0 0 0 0 0 0 0 0 0 0 0 0 0 0 0 0 40 0 0 0 0 21 0 23 0 0 0 0 35 0 0 0 0 0 0 0 0 0 33 0 0 0 0 22 22 0 0 23 0 0 0 0 0 0 24 0 0 0 0 0 0 0 0 0 0 0 0 0 0 0 0 0 
		43 0 0 0 0 0 0 0 0 0 0 0 0 0 0 0 0 0 0 26 0 0 0 0 0 0 0 0 0 0 0 0 0 0 27 0 0 0 0 0 0 0 0 0 0 0 0 0 0 0 0 27 0 0 0 0 0 0 0 0 29 0 0 0 0 0 0 0 0 0 0 0 0 0 25 0 
		44 0 0 0 0 29 0 0 0 0 0 0 0 0 0 0 0 33 0 0 0 0 0 27 0 0 20 0 0 0 0 0 0 0 0 0 26 0 0 0 0 0 0 0 0 0 0 0 0 0 0 0 0 0 0 0 25 0 0 0 0 0 0 0 0 0 0 0 0 0 0 0 0 0 0 0 
		45 0 0 0 0 0 0 39 0 0 0 0 40 0 0 0 0 0 0 0 0 0 0 0 0 0 0 0 0 0 0 0 0 0 0 0 0 0 0 0 0 30 26 0 0 0 0 31 0 0 0 0 0 0 0 0 0 0 0 0 0 34 0 37 0 0 0 0 32 0 0 38 0 0 0 0 
		46 0 0 0 0 0 0 0 23 0 0 0 0 0 0 0 0 0 34 0 0 0 0 0 0 0 0 0 0 0 0 0 34 0 0 0 0 0 0 0 39 0 0 22 0 0 31 0 0 0 0 0 0 0 20 0 0 25 0 0 0 0 0 0 0 0 0 0 0 0 0 0 0 0 0 0 
		47 0 0 25 0 0 0 0 0 0 20 0 0 0 0 0 0 20 0 0 0 0 0 0 0 0 0 0 0 40 23 0 0 0 0 0 0 0 0 25 0 0 0 22 0 0 0 0 0 0 0 0 0 0 0 0 25 22 40 0 0 0 0 0 32 0 0 36 0 0 0 0 0 0 0 0 
		48 0 0 32 0 23 0 0 33 0 0 0 0 0 0 22 0 0 32 0 0 0 0 0 26 0 40 0 0 0 0 0 0 0 0 0 39 40 0 0 0 0 0 0 0 0 0 0 0 0 0 0 0 0 36 0 0 0 0 24 0 0 0 0 0 0 0 0 0 26 0 0 0 0 0 0 
		49 0 36 0 0 0 0 0 0 0 32 0 0 0 0 0 0 0 0 0 0 0 33 0 0 0 0 0 0 0 0 0 0 37 28 0 0 0 0 0 0 0 0 0 0 0 0 0 0 0 0 0 0 0 0 34 25 0 0 0 0 0 0 0 0 0 0 0 0 26 30 0 0 0 0 0 
		50 21 0 0 0 0 0 0 0 0 0 27 0 0 0 0 0 0 0 0 0 0 38 0 0 0 0 0 0 0 0 0 0 35 0 0 0 0 0 0 0 0 0 23 27 0 0 0 0 0 0 0 0 0 0 0 0 0 0 0 0 0 33 0 0 0 0 20 0 0 0 0 0 0 0 0 
		51 30 0 0 21 36 0 0 0 0 0 0 0 0 0 0 0 0 0 0 0 0 0 0 0 0 0 0 0 0 0 0 0 31 0 0 0 0 0 0 0 0 0 0 0 0 0 0 0 0 0 0 0 0 0 0 0 24 0 0 0 0 0 0 27 0 36 0 0 0 0 0 0 0 39 0 
		52 0 0 0 0 0 0 0 0 0 0 0 0 0 0 0 0 0 0 0 0 0 0 0 0 0 0 0 0 0 0 0 0 0 0 0 0 0 29 0 0 0 0 0 0 0 0 0 0 0 0 0 0 0 0 0 0 0 0 0 0 0 0 0 0 0 27 0 0 0 0 0 0 0 0 0 
		53 0 0 0 0 0 0 0 0 0 0 0 23 31 0 0 28 0 0 0 0 0 0 0 0 0 0 38 0 0 0 0 0 39 0 0 0 0 0 0 0 0 26 0 0 0 0 20 0 36 0 0 0 0 0 0 0 0 0 28 0 0 0 0 0 0 0 0 0 0 0 0 0 0 0 0 
		54 35 0 0 0 0 0 0 0 0 23 0 39 0 0 0 0 0 0 0 0 0 0 0 0 0 0 0 0 0 0 32 0 0 0 0 0 0 0 0 0 27 0 0 0 0 0 0 0 0 34 0 0 0 0 0 0 32 26 0 0 0 0 0 0 0 0 0 0 0 0 0 0 0 0 0 
		55 0 0 0 0 23 0 38 0 23 0 0 0 36 0 0 0 36 0 0 35 0 0 0 0 0 0 0 0 31 0 0 0 0 0 0 0 0 0 0 0 0 0 0 0 25 0 0 25 0 25 0 0 0 0 0 0 0 0 24 0 0 0 24 36 0 0 0 0 0 0 0 0 0 0 0 
		56 0 21 0 0 0 0 0 0 0 0 0 0 0 0 0 0 0 21 0 21 0 0 0 0 0 0 0 0 0 0 38 0 0 0 0 0 0 0 0 0 0 0 0 0 0 0 25 22 0 0 0 24 0 0 32 0 0 0 22 32 0 0 0 33 0 0 0 0 0 0 0 30 0 0 0 
		57 0 0 0 0 0 0 0 0 0 0 0 0 0 0 0 0 0 0 0 0 0 0 0 0 29 0 0 0 0 0 0 0 0 0 31 0 0 0 0 0 0 0 24 0 0 0 0 40 0 0 0 0 0 0 26 0 0 0 0 22 0 0 0 0 0 0 0 0 0 0 0 0 0 0 0 
		58 0 0 0 0 0 0 0 0 0 0 0 0 0 0 0 0 0 0 29 0 0 0 0 0 0 0 31 20 0 0 0 0 0 0 0 0 31 0 0 0 0 0 0 0 0 0 0 0 24 0 0 0 0 28 0 24 22 0 0 0 0 20 0 0 0 0 0 0 0 0 0 0 31 0 0 
		59 0 0 0 0 0 0 29 0 0 0 0 0 0 0 0 0 0 0 0 0 0 0 0 0 0 0 0 0 27 0 0 0 0 0 0 0 0 0 0 0 37 0 0 29 0 0 0 0 0 0 0 0 0 0 0 0 32 22 0 0 0 0 0 0 0 0 0 25 0 0 0 0 0 0 0 
		60 0 0 25 0 0 28 0 0 22 0 0 0 0 0 38 0 0 0 0 23 0 0 0 0 0 0 0 0 0 0 0 37 0 0 0 0 0 0 0 0 0 35 0 0 0 34 0 0 0 0 0 0 0 0 0 0 0 0 0 0 0 0 0 0 0 0 0 0 0 0 37 31 0 0 0 
		61 0 0 0 0 0 0 0 0 39 0 0 0 0 0 0 0 37 0 22 0 0 0 0 0 0 0 0 0 0 22 0 0 0 0 0 20 0 0 0 0 34 0 0 0 0 0 0 0 0 0 33 0 0 0 0 0 0 0 20 0 0 0 0 0 0 0 0 0 0 20 0 0 22 0 0 
		62 0 0 0 0 0 0 0 0 0 0 0 0 0 0 0 0 0 0 0 0 0 0 0 31 0 0 0 0 0 0 0 0 0 0 0 0 39 0 0 0 0 0 0 0 0 37 0 0 0 0 0 0 0 0 0 24 0 0 0 0 0 0 0 0 0 0 21 0 0 0 25 0 0 0 0 
		63 0 0 33 0 0 0 34 0 0 0 35 0 0 0 0 0 0 39 0 0 20 0 25 0 0 0 0 0 0 0 0 0 0 0 0 0 0 0 26 0 0 0 0 0 0 0 0 32 0 0 0 27 0 0 0 36 33 0 0 0 0 0 0 0 0 0 40 0 32 0 0 0 0 35 0 
		64 0 0 0 33 0 0 0 0 0 0 0 0 0 0 0 0 0 0 0 0 20 0 0 0 0 0 0 0 0 0 0 0 20 0 0 0 0 0 25 0 0 0 0 0 0 0 0 0 0 0 0 0 0 0 0 0 0 0 0 0 0 0 0 0 0 0 29 0 0 0 0 0 0 0 0 
		65 0 0 0 22 25 0 31 0 0 38 0 0 0 21 29 0 40 0 31 0 21 0 34 25 0 0 26 0 0 0 0 38 23 0 0 23 22 0 0 0 0 0 0 0 0 0 0 0 0 0 0 36 27 0 0 0 0 0 0 0 0 0 0 0 0 0 0 0 0 36 0 0 0 0 0 
		66 0 0 0 0 0 0 0 0 0 0 0 0 0 0 0 0 0 25 35 0 38 0 0 0 28 0 0 0 0 0 0 0 23 0 0 37 0 0 0 0 0 0 0 0 0 0 0 36 0 0 20 0 0 0 0 0 0 0 0 0 0 0 21 40 29 0 0 0 0 0 0 0 0 0 0 
		67 0 0 0 0 0 0 0 0 0 0 0 0 0 0 0 0 0 0 0 0 0 0 0 0 0 0 0 0 0 0 0 0 0 0 0 0 0 0 0 0 0 0 0 0 0 32 0 0 0 0 0 0 0 0 0 0 0 0 0 25 0 0 0 0 0 0 0 0 0 0 0 0 0 0 0 
		68 0 29 0 0 0 0 0 0 0 0 0 0 0 39 0 0 30 0 31 0 0 0 0 0 0 0 0 0 0 0 0 0 28 40 0 0 0 0 0 0 0 0 0 0 0 0 0 0 26 26 0 0 0 0 0 0 0 0 0 0 0 0 0 32 0 0 0 0 0 0 0 0 0 0 0 
		69 0 0 0 0 22 0 0 0 0 0 0 0 0 0 0 0 36 0 0 0 0 0 32 0 0 0 0 0 0 0 0 0 0 0 0 0 26 0 0 0 0 27 0 0 0 0 0 0 0 30 0 0 0 0 0 0 0 0 0 0 0 20 0 0 0 36 0 0 0 0 0 0 0 0 0 
		70 0 0 0 0 0 0 0 0 0 0 0 0 40 0 0 0 0 0 0 0 0 0 0 0 0 0 33 0 0 0 0 0 0 0 38 0 40 0 0 0 36 0 0 0 0 38 0 0 0 0 0 0 0 0 0 0 0 0 0 0 37 0 25 0 0 0 0 0 0 0 0 0 0 0 0 
		71 0 28 0 0 0 0 0 0 0 0 0 27 0 0 0 0 0 0 0 0 0 0 0 0 0 0 0 0 0 40 0 25 0 0 26 0 0 0 0 0 0 0 0 0 0 0 0 0 0 0 0 0 0 0 0 0 30 0 0 0 31 0 0 0 0 0 0 0 0 0 0 0 0 0 0 
		72 0 0 0 0 0 0 0 0 0 0 0 0 38 0 0 0 0 0 0 0 0 0 0 0 0 0 0 0 0 0 0 0 0 0 0 0 29 0 0 0 25 0 0 0 0 0 0 0 0 0 0 0 0 0 0 0 0 0 31 0 0 22 0 0 0 0 0 0 0 0 0 0 0 30 0 
		73 0 0 0 0 27 0 0 0 0 0 0 0 0 0 0 0 0 0 0 0 0 0 0 0 0 0 0 0 0 0 0 0 0 0 0 0 0 0 0 0 0 0 0 25 0 0 0 0 0 0 0 39 0 0 0 0 0 0 0 0 0 0 0 35 0 0 0 0 0 0 0 0 30 0 0 
		74 0 0 0 0 36 0 0 0 0 0 0 0 0 0 0 0 0 0 0 0 0 0 0 0 0 0 0 0 0 0 39 0 0 0 32 0 0 0 0 0 0 0 0 0 0 0 0 0 0 0 0 0 0 0 0 0 0 0 0 0 0 0 0 0 0 0 0 0 0 0 0 0 0 0 0 
;
